p cnf 122 433
5 2 0
5 4 0
-2 -4 -5 0
-8 6 0
-8 -7 0
-6 7 8 0
-9 5 0
-9 8 0
-5 -8 9 0
10 9 0
10 4 0
-9 -4 -10 0
3 -10 -11 0
-3 10 -11 0
3 10 11 0
-3 -10 11 0
-13 12 0
-13 -6 0
-12 6 13 0
-14 11 0
-14 -13 0
-11 13 14 0
15 2 0
15 14 0
-2 -14 -15 0
-1 -15 -16 0
1 15 -16 0
-1 15 16 0
1 -15 16 0
-19 -18 0
-19 12 0
18 -12 19 0
20 -19 0
20 4 0
19 -4 -20 0
21 17 0
21 -20 0
-17 20 -21 0
-22 16 0
-22 21 0
-16 -21 22 0
23 -4 0
23 -3 0
4 3 -23 0
25 -7 0
25 24 0
7 -24 -25 0
25 26 -27 0
-25 -26 -27 0
25 -26 27 0
-25 26 27 0
28 23 0
28 27 0
-23 -27 -28 0
22 28 -29 0
-22 -28 -29 0
22 -28 29 0
-22 28 29 0
31 5 0
31 30 0
-5 -30 -31 0
32 31 0
32 -31 0
33 30 0
33 2 0
-30 -2 -33 0
32 33 -34 0
-32 -33 -34 0
32 -33 34 0
-32 33 34 0
35 -11 0
35 -27 0
11 27 -35 0
-34 -35 -36 0
34 35 -36 0
-34 35 36 0
34 -35 36 0
-37 -3 0
-37 -30 0
3 30 37 0
-38 -25 0
-38 -37 0
25 37 38 0
-39 -38 0
-39 37 0
38 -37 39 0
12 -39 -40 0
-12 39 -40 0
12 39 40 0
-12 -39 40 0
41 -40 0
41 20 0
40 -20 -41 0
-42 -41 0
-42 -14 0
41 14 42 0
-12 -18 -43 0
12 18 -43 0
-12 18 43 0
12 -18 43 0
-44 18 0
-44 43 0
-18 -43 44 0
45 -30 0
45 44 0
30 -44 -45 0
46 -42 0
46 45 0
42 -45 -46 0
47 4 0
47 -2 0
-4 2 -47 0
-39 47 -48 0
39 -47 -48 0
-39 -47 48 0
39 47 48 0
-49 -46 0
-49 -48 0
46 48 49 0
19 4 -50 0
-19 -4 -50 0
19 -4 50 0
-19 4 50 0
-51 -3 0
-51 -50 0
3 50 51 0
51 -2 -52 0
-51 2 -52 0
51 2 52 0
-51 -2 52 0
-49 -52 -53 0
49 52 -53 0
-49 52 53 0
49 -52 53 0
36 53 -54 0
-36 -53 -54 0
36 -53 54 0
-36 53 54 0
55 29 0
55 54 0
-29 -54 -55 0
7 -56 -57 0
-7 56 -57 0
7 56 57 0
-7 -56 57 0
-58 12 0
-58 57 0
-12 -57 58 0
-59 43 0
-59 5 0
-43 -5 59 0
-60 59 0
-60 25 0
-59 -25 60 0
-61 30 0
-61 -30 0
-62 61 0
-62 -56 0
-61 56 62 0
63 -60 0
63 -62 0
60 62 -63 0
-64 -7 -65 0
64 7 -65 0
-64 7 65 0
64 -7 65 0
66 -65 0
66 50 0
65 -50 -66 0
-67 -12 0
-67 -3 0
12 3 67 0
-68 18 0
-68 67 0
-18 -67 68 0
-69 -37 0
-69 59 0
37 -59 69 0
70 68 0
70 -69 0
-68 69 -70 0
-71 -66 0
-71 -70 0
66 70 71 0
72 -30 0
72 -26 0
30 26 -72 0
-71 -72 -73 0
71 72 -73 0
-71 72 73 0
71 -72 73 0
63 73 -74 0
-63 -73 -74 0
63 -73 74 0
-63 73 74 0
-75 -58 0
-75 74 0
58 -74 75 0
-76 9 0
-76 44 0
-9 -44 76 0
77 25 0
77 -4 0
-25 4 -77 0
78 77 0
78 -2 0
-77 2 -78 0
24 -4 -79 0
-24 4 -79 0
24 4 79 0
-24 -4 79 0
80 -78 0
80 79 0
78 -79 -80 0
81 -64 0
81 7 0
64 -7 -81 0
82 -12 0
82 81 0
12 -81 -82 0
-83 82 0
-83 24 0
-82 -24 83 0
-84 80 0
-84 83 0
-80 -83 84 0
-57 -43 -85 0
57 43 -85 0
-57 43 85 0
57 -43 85 0
43 37 -86 0
-43 -37 -86 0
43 -37 86 0
-43 37 86 0
-85 -86 -87 0
85 86 -87 0
-85 86 87 0
85 -86 87 0
7 43 -88 0
-7 -43 -88 0
7 -43 88 0
-7 43 88 0
-88 18 -89 0
88 -18 -89 0
-88 -18 89 0
88 18 89 0
89 7 -90 0
-89 -7 -90 0
89 -7 90 0
-89 7 90 0
87 -90 -91 0
-87 90 -91 0
87 90 91 0
-87 -90 91 0
25 -26 -92 0
-25 26 -92 0
25 26 92 0
-25 -26 92 0
-91 -92 -93 0
91 92 -93 0
-91 92 93 0
91 -92 93 0
-94 -84 0
-94 -93 0
84 93 94 0
-95 -76 0
-95 -94 0
76 94 95 0
64 81 -96 0
-64 -81 -96 0
64 -81 96 0
-64 81 96 0
97 -4 0
97 96 0
4 -96 -97 0
-98 -77 0
-98 6 0
77 -6 98 0
-99 -97 0
-99 98 0
97 -98 99 0
95 99 -100 0
-95 -99 -100 0
95 -99 100 0
-95 99 100 0
101 -9 0
101 57 0
9 -57 -101 0
102 -56 0
102 57 0
56 -57 -102 0
-103 -102 0
-103 -57 0
102 57 103 0
-104 -77 0
-104 -77 0
77 104 0
-105 -6 0
-105 81 0
6 -81 105 0
4 -23 -106 0
-4 23 -106 0
4 23 106 0
-4 -23 106 0
105 -106 -107 0
-105 106 -107 0
105 106 107 0
-105 -106 107 0
108 -104 0
108 107 0
104 -107 -108 0
109 103 0
109 -108 0
-103 108 -109 0
-4 6 -110 0
4 -6 -110 0
-4 -6 110 0
4 6 110 0
-110 -19 -111 0
110 19 -111 0
-110 19 111 0
110 -19 111 0
112 -111 0
112 -59 0
111 59 -112 0
-59 -112 -113 0
59 112 -113 0
-59 112 113 0
59 -112 113 0
114 8 0
114 59 0
-8 -59 -114 0
47 -114 -115 0
-47 114 -115 0
47 114 115 0
-47 -114 115 0
-8 115 -116 0
8 -115 -116 0
-8 -115 116 0
8 115 116 0
113 -116 -117 0
-113 116 -117 0
113 116 117 0
-113 -116 117 0
118 -109 0
118 117 0
109 -117 -118 0
-119 -101 0
-119 118 0
101 -118 119 0
-120 100 0
-120 119 0
-100 -119 120 0
-121 -75 0
-121 -120 0
75 120 121 0
55 -121 -122 0
-55 121 -122 0
55 121 122 0
-55 -121 122 0
51 58 0
82 -73 79 111 83 -74 0
-92 75 107 -52 -112 80 0
112 17 2 -96 0
7 111 -40 0
94 -64 -95 0
-119 -91 -110 90 -48 46 0
-45 -106 0
-23 111 52 108 0
109 49 9 51 93 0
-115 -45 13 118 30 -82 0
65 34 -14 0
26 -44 0
-21 4 -85 5 0
-31 -5 -7 0
46 19 0
-28 106 -38 0
82 27 0
-40 -24 0
22 -97 19 0
-17 -79 0
-23 15 116 0
-108 -11 25 9 0
48 -68 -52 0
-32 74 44 -5 102 -76 0
94 -72 29 0
-120 54 75 33 0
18 92 12 79 40 0
55 113 -115 114 82 0
-6 92 103 7 49 0
-57 31 -60 -54 76 0
-8 113 0
-115 48 0
-114 69 -43 0
122 -17 0
52 36 49 -75 -23 0
61 35 19 -62 0
-56 122 -1 -29 0
35 14 79 0
-28 104 -61 91 11 114 0
-54 -20 75 0
-72 -49 87 0
11 31 35 17 0
5 -57 113 0
115 -8 -69 88 0
42 99 0
46 -30 -79 -16 28 35 0
-65 -2 -62 0
10 -42 122 0
-18 -11 0
51 -78 -122 -65 -2 0
-70 -40 -30 -101 51 43 0
-104 -119 82 -85 0
-66 45 71 -56 0
-119 67 84 13 0
-4 72 81 122 100 -55 0
14 7 -89 -116 0
71 54 88 -56 0
96 -116 0
-13 -43 6 -42 95 0
117 27 -23 34 0
101 75 -25 -21 -115 -31 0
122 -111 78 -70 0
45 6 74 -96 -95 -103 0
7 -28 56 -82 120 54 0
51 -66 0
-82 55 0
-22 105 93 -20 0
-18 -117 112 41 63 0
-66 -86 0
88 23 0
46 103 117 48 85 0
122 0
